NAME: n20q35C.tsp, 20 nodes, semilla 222
COMMENT: Problema aleatorio de norma euclidea
DIMENSION: 20
CAPACITY: 35
EDGE_WEIGHT_TYPE: EUC_2D
NODE_COORD_SECTION
1   0.0000   0.0000
2 302.0000 264.0000
3 -191.0000 -343.0000
4  64.0000 431.0000
5 -477.0000 -298.0000
6 -270.0000 -492.0000
7 -388.0000 287.0000
8  50.0000 274.0000
9 -378.0000 498.0000
10 186.0000  32.0000
11 -455.0000 -299.0000
12 -480.0000 -417.0000
13 -216.0000 112.0000
14  41.0000 -213.0000
15  95.0000 -480.0000
16 -488.0000 208.0000
17 -376.0000 -203.0000
18  97.0000 -161.0000
19 -370.0000 325.0000
20 -77.0000 -263.0000
DISPLAY_DATA_SECTION:
 1  250  250
 2  401  382
 3  154   78
 4  282  465
 5   11  101
 6  115    4
 7   56  393
 8  275  387
 9   61  499
10  343  266
11   22  100
12   10   41
13  142  306
14  270  143
15  297   10
16    6  354
17   62  148
18  298  169
19   65  412
20  211  118
DEMAND_SECTION
1 -10
2 3
3 -8
4 6
5 -2
6 -8
7 2
8 6
9 -2
10 5
11 -3
12 -10
13 3
14 7
15 5
16 8
17 -3
18 -2
19 -6
20 9
EOF